************************************************************************
file with basedata            : j60_40.bas
initial value random generator: 744537040
************************************************************************
projects                      :  1
jobs (incl. supersource/sink ):  62
horizon                       :  344
RESOURCES
  - renewable                 :  4   R
  - nonrenewable              :  0   N
  - doubly constrained        :  0   D
************************************************************************
PROJECT INFORMATION:
pronr.  #jobs rel.date duedate tardcost  MPM-Time
    1     60      0       68       59       68
************************************************************************
PRECEDENCE RELATIONS:
jobnr.    #modes  #successors   successors
   1        1          3           2   3   4
   2        1          3           8  11  21
   3        1          3          22  23  33
   4        1          3           5   6   7
   5        1          1          13
   6        1          3          15  24  29
   7        1          3           9  10  11
   8        1          2          12  13
   9        1          3          18  30  31
  10        1          3          21  35  36
  11        1          3          17  18  19
  12        1          3          14  16  29
  13        1          2          25  39
  14        1          1          49
  15        1          3          20  33  55
  16        1          2          32  43
  17        1          1          27
  18        1          2          50  55
  19        1          3          34  41  46
  20        1          2          26  50
  21        1          2          34  44
  22        1          1          38
  23        1          1          49
  24        1          2          36  49
  25        1          2          35  38
  26        1          3          28  30  38
  27        1          1          60
  28        1          1          48
  29        1          3          39  57  61
  30        1          1          51
  31        1          2          35  41
  32        1          1          48
  33        1          2          39  50
  34        1          1          37
  35        1          3          42  53  54
  36        1          1          54
  37        1          2          47  53
  38        1          1          40
  39        1          2          58  59
  40        1          1          41
  41        1          3          44  45  56
  42        1          3          46  48  51
  43        1          3          44  51  56
  44        1          1          47
  45        1          1          53
  46        1          2          47  52
  47        1          1          59
  48        1          1          58
  49        1          1          52
  50        1          1          54
  51        1          1          61
  52        1          1          55
  53        1          1          57
  54        1          2          58  61
  55        1          2          56  57
  56        1          1          60
  57        1          1          59
  58        1          1          60
  59        1          1          62
  60        1          1          62
  61        1          1          62
  62        1          0        
************************************************************************
REQUESTS/DURATIONS:
jobnr. mode duration  R 1  R 2  R 3  R 4
------------------------------------------------------------------------
  1      1     0       0    0    0    0
  2      1     9       5    0    0    0
  3      1     1       4    0    0    8
  4      1     2       0    3    0    0
  5      1     9      10    0    0    0
  6      1     1       7    0    0    6
  7      1     8       0    3    0    3
  8      1     7       0   10    2   10
  9      1     5       6    0    4    3
 10      1     7       0    0    5    0
 11      1     4       5    0    0    2
 12      1     6       0    0    9    0
 13      1     7       9    0    3    0
 14      1     4       6    0    0    3
 15      1     6       1    9    0    7
 16      1     2       0    0    3    3
 17      1     3       5    0    0    9
 18      1     5       0    0    5    7
 19      1     8       0    8    5    2
 20      1     5       0    0    3    8
 21      1     2       0    0    0    1
 22      1     8       0    0    0    6
 23      1     2       0    0    5    4
 24      1     3       0    0    2    0
 25      1     2       0    0    0    5
 26      1     2       0    0    7    5
 27      1     6       8    1    0    0
 28      1     2       9    0    0    0
 29      1     7      10    0    0    0
 30      1     7       0    0   10   10
 31      1     9       8    3    0    0
 32      1    10       0   10    2    1
 33      1     2       0    6    0    3
 34      1     9       6    0    8    3
 35      1     4       0    6    0    9
 36      1     8       0    7    3    0
 37      1    10      10   10    5    0
 38      1     5       3    5    4    5
 39      1     7       6    0    2    2
 40      1     2       9    5    0    0
 41      1    10       2    0    1    7
 42      1     2       5    0    6    0
 43      1     8       0    8    0    4
 44      1     5       0    0    2    0
 45      1    10       3    7    0    5
 46      1     7       6    0    0    9
 47      1     7       0    4    0    5
 48      1     6       5    0    3    5
 49      1     6       0    0   10    8
 50      1     9       0    7    8    0
 51      1     8       0    5    7   10
 52      1     5       0    7    0    0
 53      1     4       0    2    0    2
 54      1     4       0    8    6    1
 55      1     8       0    6    8    0
 56      1     7       0    1    2    5
 57      1     2       9    0    8    0
 58      1     5       0    0    0    9
 59      1     8       0    9    0    1
 60      1    10       4    0    0    9
 61      1     7       0    0    1    0
 62      1     0       0    0    0    0
************************************************************************
RESOURCEAVAILABILITIES:
  R 1  R 2  R 3  R 4
   47   41   38   33
************************************************************************
